15
0 269 165 477 696 565 193 424 884 413 188 418 475 675 526
269 0 230 553 640 301 90 263 618 146 160 149 225 497 436
165 230 0 626 803 522 209 276 829 345 260 355 455 716 613
477 553 626 0 328 695 478 810 961 658 401 650 589 534 309
696 640 803 328 0 629 604 896 803 681 543 668 551 325 206
565 301 522 695 629 0 373 399 319 182 408 168 108 350 442
193 90 209 478 604 373 0 332 692 234 77 235 281 510 407
424 263 276 810 896 399 332 0 649 238 409 254 393 706 690
884 618 829 961 803 319 692 649 0 484 725 475 418 477 666
413 146 345 658 681 182 234 238 484 0 294 16 155 468 476
188 160 260 401 543 408 77 409 725 294 0 292 307 487 354
418 149 355 650 668 168 235 254 475 16 292 0 139 452 463
475 225 455 589 551 108 281 393 418 155 307 139 0 313 354
675 497 716 534 325 350 510 706 477 468 487 452 313 0 225
526 436 613 309 206 442 407 690 666 476 354 463 354 225 0
